p cnf 25 38
-1 -2 -3 18 23 0 
-3 18 23 0 
-4 5 19 -2 24 0 
-2 -5 4 19 23 0 
-6 -5 4 19 23 0 
-7 -8 24 0 
-4 5 19 23 0 
-9 23 0 
-4 5 19 -10 24 0 
-11 -5 4 19 24 0 
-5 4 19 23 0 
-12 -6 -10 23 0 
-4 5 19 24 0 
-10 23 0 
-6 -13 -8 23 0 
-14 25 0 
-15 23 0 
-7 -12 -5 4 19 23 0 
-13 -16 -15 23 0 
-7 -16 -5 4 19 23 0 
-1 -17 21 -15 23 0 
-13 -12 -5 4 19 23 0 
-15 -5 4 19 -2 24 0 
-6 -16 -2 -5 4 19 23 0 
-9 -10 -18 3 24 0 
-11 -19 4 5 24 0 
-20 24 0 
-2 -7 -16 -5 4 19 23 0 
-16 -2 -10 23 0 
-21 17 24 0 
-7 -1 -5 4 19 24 0 
-9 24 0 
-22 24 0 
-13 -6 -3 18 23 0 
-13 -7 -5 4 19 23 0 
-12 -6 -3 18 23 0 
-1 -2 -4 5 19 24 0 
-7 -1 -10 23 0 
